1190.0 13122.0 
1190.0 13122.0 
1190.0 13122.0 
1190.0 13122.0 
1198.0 13113.0 
1148.0 13468.0 
1190.0 13122.0 
1153.0 13406.0 
1198.0 13113.0 
1158.0 13369.0 
1190.0 13122.0 
1190.0 13122.0 
1162.0 13205.0 
1161.0 13215.0 
1148.0 13468.0 
1138.0 13518.0 
